datasets/2-dimensional/CL_02_25_06.vbp
2
1000 1000 
25
736 126 30
294 145 72
414 671 4
319 592 88
563 132 54
36 843 64
959 618 90
889 676 26
715 575 94
658 202 28
275 780 72
453 864 49
416 344 54
718 442 19
250 712 28
232 45 61
221 661 84
105 118 23
106 304 67
780 440 53
18 83 54
39 121 16
399 776 9
988 605 54
30 496 77
