2-dimensional/CL_02_25_06.txt
1000 1000 
0 30 736 126 
1 72 294 145 
2 4 414 671 
3 88 319 592 
4 54 563 132 
5 64 36 843 
6 90 959 618 
7 26 889 676 
8 94 715 575 
9 28 658 202 
10 72 275 780 
11 49 453 864 
12 54 416 344 
13 19 718 442 
14 28 250 712 
15 61 232 45 
16 84 221 661 
17 23 105 118 
18 67 106 304 
19 53 780 440 
20 54 18 83 
21 16 39 121 
22 9 399 776 
23 54 988 605 
24 77 30 496 
